
Starting CP-SAT solver v9.15.6755
Parameters: random_seed: 2026072638 max_time_in_seconds: 2500 log_search_progress: true cp_model_presolve: true linearization_level: 2 num_search_workers: 4 cp_model_probing_level: 2 symmetry_level: 2

Initial satisfaction model '': (model_fingerprint: 0x9a512647303eb53d)
#Variables: 724 (598 primary variables)
  - 724 Booleans in [0,1]
#kBoolAnd: 110 (#enforced: 110) (#literals: 330)
#kBoolOr: 110 (#enforced: 110) (#literals: 220)
#kExactlyOne: 87 (#literals: 261)
#kLinear1: 42 (#enforced: 6)
#kLinear2: 336 (#enforced: 336) (#complex_domain: 110)
#kLinear3: 1'600 (#enforced: 6)
#kLinearN: 1'132 (#enforced: 243) (#terms: 9'111)

Starting presolve at 0.00s
  6.57e-04s  0.00e+00d  [DetectDominanceRelations] 
  8.62e-03s  0.00e+00d  [PresolveToFixPoint] #num_loops=3 #num_dual_strengthening=1 
  3.73e-05s  0.00e+00d  [ExtractEncodingFromLinear] #potential_supersets=76 
  2.84e-04s  0.00e+00d  [DetectDuplicateColumns] 
  1.06e-04s  0.00e+00d  [DetectDuplicateConstraints] #duplicates=15 
[Symmetry] Graph for symmetry has 4'817 nodes and 15'290 arcs.
[Symmetry] Symmetry computation done. time: 0.00123519 dtime: 0.00175547
[SAT presolve] num removable Booleans: 220 / 606
[SAT presolve] num trivial clauses: 0
[SAT presolve] [0s] clauses:2'690 literals:7'350 vars:499 one_side_vars:58 simple_definition:1 singleton_clauses:0
[SAT presolve] [0.000212407s] clauses:2'666 literals:7'277 vars:499 one_side_vars:59 simple_definition:2 singleton_clauses:1
[SAT presolve] [0.000677096s] clauses:2'179 literals:6'463 vars:371 one_side_vars:67 simple_definition:67 singleton_clauses:1
  1.15e-04s  0.00e+00d  [DetectDuplicateConstraintsWithDifferentEnforcements] #without_enforcements=6 
  5.08e-03s  2.01e-03d  [Probe] #probed=1'264 #fixed_bools=1 #equiv=1 #new_binary_clauses=890 
  4.36e-04s  3.97e-04d  [MaxClique] Merged 528 constraints with 1'188 literals into 457 constraints with 1'073 literals
  8.18e-04s  0.00e+00d  [DetectDominanceRelations] 
  3.09e-03s  0.00e+00d  [PresolveToFixPoint] #num_loops=1 #num_dual_strengthening=1 
  1.13e-03s  0.00e+00d  [ProcessAtMostOneAndLinear] 
  9.23e-05s  0.00e+00d  [DetectDuplicateConstraints] 
  8.50e-05s  0.00e+00d  [DetectDuplicateConstraintsWithDifferentEnforcements] 
  2.69e-03s  9.01e-05d  [DetectDominatedLinearConstraints] #relevant_constraints=816 #num_inclusions=455 #num_redundant=9 
  1.12e-04s  0.00e+00d  [DetectDifferentVariables] 
  7.06e-04s  8.11e-05d  [ProcessSetPPC] #relevant_constraints=2'988 #num_inclusions=86 
  2.83e-04s  3.30e-05d  [TransformClausesToExactlyOne] #num_amos=502 #num_clauses=1'671 #num_checked=1'671 
  3.83e-05s  0.00e+00d  [DetectEncodedComplexDomains] 
  3.17e-05s  0.00e+00d  [FindAlmostIdenticalLinearConstraints] 
  9.09e-04s  1.36e-03d  [FindBigAtMostOneAndLinearOverlap] 
  1.46e-03s  1.19e-03d  [FindBigVerticalLinearOverlap] #blocks=4 #saved_nz=252 
  3.46e-04s  5.75e-04d  [FindBigHorizontalLinearOverlap] #linears=452 
  3.19e-04s  2.70e-05d  [MergeClauses] #num_collisions=20 #num_merges=20 #num_saved_literals=100 
  7.95e-04s  0.00e+00d  [DetectDominanceRelations] 
  2.96e-03s  0.00e+00d  [PresolveToFixPoint] #num_loops=2 #num_dual_strengthening=1 
  7.91e-04s  0.00e+00d  [DetectDominanceRelations] 
  2.86e-03s  0.00e+00d  [PresolveToFixPoint] #num_loops=1 #num_dual_strengthening=1 
  1.92e-04s  0.00e+00d  [DetectDuplicateColumns] 
  8.66e-05s  0.00e+00d  [DetectDuplicateConstraints] 
[Symmetry] Graph for symmetry has 4'275 nodes and 13'179 arcs.
[Symmetry] Symmetry computation done. time: 0.000851092 dtime: 0.00122505
[SAT presolve] num removable Booleans: 92 / 476
[SAT presolve] num trivial clauses: 0
[SAT presolve] [0s] clauses:2'132 literals:6'322 vars:452 one_side_vars:151 simple_definition:67 singleton_clauses:0
[SAT presolve] [0.000216625s] clauses:2'132 literals:6'142 vars:452 one_side_vars:198 simple_definition:51 singleton_clauses:0
[SAT presolve] [0.000285514s] clauses:2'129 literals:6'139 vars:451 one_side_vars:198 simple_definition:49 singleton_clauses:0
  1.45e-04s  0.00e+00d  [DetectDuplicateConstraintsWithDifferentEnforcements] 
  5.73e-03s  2.04e-03d  [Probe] #probed=1'264 #new_binary_clauses=880 
  4.17e-04s  3.97e-04d  [MaxClique] Merged 499 constraints with 1'112 literals into 497 constraints with 1'112 literals
  7.93e-04s  0.00e+00d  [DetectDominanceRelations] 
  2.90e-03s  0.00e+00d  [PresolveToFixPoint] #num_loops=1 #num_dual_strengthening=1 
  1.06e-03s  0.00e+00d  [ProcessAtMostOneAndLinear] 
  1.31e-04s  0.00e+00d  [DetectDuplicateConstraints] 
  9.40e-05s  0.00e+00d  [DetectDuplicateConstraintsWithDifferentEnforcements] 
  1.14e-03s  5.70e-05d  [DetectDominatedLinearConstraints] #relevant_constraints=806 #num_inclusions=319 
  1.19e-04s  0.00e+00d  [DetectDifferentVariables] 
  7.04e-04s  6.97e-05d  [ProcessSetPPC] #relevant_constraints=3'025 #num_inclusions=74 
  2.64e-04s  3.23e-05d  [TransformClausesToExactlyOne] #num_amos=497 #num_clauses=1'670 #num_checked=1'670 
  5.66e-05s  0.00e+00d  [DetectEncodedComplexDomains] 
  3.85e-05s  0.00e+00d  [FindAlmostIdenticalLinearConstraints] 
  8.02e-04s  1.00e-03d  [FindBigAtMostOneAndLinearOverlap] 
  1.17e-03s  8.51e-04d  [FindBigVerticalLinearOverlap] #blocks=1 #saved_nz=31 
  3.31e-04s  5.48e-04d  [FindBigHorizontalLinearOverlap] #linears=450 
  3.25e-04s  2.61e-05d  [MergeClauses] #num_collisions=78 #num_merges=78 #num_saved_literals=224 
  8.16e-04s  0.00e+00d  [DetectDominanceRelations] 
  2.95e-03s  0.00e+00d  [PresolveToFixPoint] #num_loops=2 #num_dual_strengthening=1 
  8.08e-04s  0.00e+00d  [DetectDominanceRelations] 
  2.92e-03s  0.00e+00d  [PresolveToFixPoint] #num_loops=1 #num_dual_strengthening=1 
  1.29e-04s  0.00e+00d  [DetectDuplicateColumns] 
  9.40e-05s  0.00e+00d  [DetectDuplicateConstraints] 
[Symmetry] Graph for symmetry has 4'213 nodes and 12'825 arcs.
[Symmetry] Symmetry computation done. time: 0.000933376 dtime: 0.00124989
[SAT presolve] num removable Booleans: 91 / 475
[SAT presolve] num trivial clauses: 0
[SAT presolve] [0s] clauses:2'125 literals:6'130 vars:451 one_side_vars:198 simple_definition:49 singleton_clauses:0
[SAT presolve] [0.000205995s] clauses:2'125 literals:6'130 vars:451 one_side_vars:198 simple_definition:49 singleton_clauses:0
[SAT presolve] [0.000268722s] clauses:2'125 literals:6'130 vars:451 one_side_vars:198 simple_definition:49 singleton_clauses:0
  1.53e-04s  0.00e+00d  [DetectDuplicateConstraintsWithDifferentEnforcements] 
  5.42e-03s  2.02e-03d  [Probe] #probed=1'264 #new_binary_clauses=880 
  4.21e-04s  3.95e-04d  [MaxClique] 
  8.25e-04s  0.00e+00d  [DetectDominanceRelations] 
  2.96e-03s  0.00e+00d  [PresolveToFixPoint] #num_loops=1 #num_dual_strengthening=1 
  1.08e-03s  0.00e+00d  [ProcessAtMostOneAndLinear] 
  1.10e-04s  0.00e+00d  [DetectDuplicateConstraints] 
  1.12e-04s  0.00e+00d  [DetectDuplicateConstraintsWithDifferentEnforcements] 
  7.89e-04s  5.15e-05d  [DetectDominatedLinearConstraints] #relevant_constraints=804 #num_inclusions=285 
  1.23e-04s  0.00e+00d  [DetectDifferentVariables] 
  7.04e-04s  6.91e-05d  [ProcessSetPPC] #relevant_constraints=3'022 #num_inclusions=71 
  2.80e-04s  3.23e-05d  [TransformClausesToExactlyOne] #num_amos=496 #num_clauses=1'670 #num_checked=1'670 
  6.59e-05s  0.00e+00d  [DetectEncodedComplexDomains] 
  4.61e-05s  9.00e-08d  [FindAlmostIdenticalLinearConstraints] #num_tested_pairs=1 
  7.46e-04s  9.63e-04d  [FindBigAtMostOneAndLinearOverlap] 
  1.15e-03s  8.20e-04d  [FindBigVerticalLinearOverlap] 
  3.36e-04s  5.48e-04d  [FindBigHorizontalLinearOverlap] #linears=450 
  3.29e-04s  2.61e-05d  [MergeClauses] #num_collisions=78 #num_merges=78 #num_saved_literals=224 
  8.46e-04s  0.00e+00d  [DetectDominanceRelations] 
  2.98e-03s  0.00e+00d  [PresolveToFixPoint] #num_loops=1 #num_dual_strengthening=1 
  3.29e-05s  0.00e+00d  [MergeNoOverlap] 
  3.99e-05s  0.00e+00d  [MergeNoOverlap2D] 

Presolve summary:
  - 29 affine relations were detected.
  - rule 'TODO dual: only one blocking constraint?' was applied 850 times.
  - rule 'TODO linear inclusion: superset is equality' was applied 211 times.
  - rule 'affine: new relation' was applied 29 times.
  - rule 'at_most_one: transformed into max clique' was applied 2 times.
  - rule 'bool_or: always true' was applied 1 time.
  - rule 'bool_or: implications' was applied 50 times.
  - rule 'bool_or: only one literal' was applied 12 times.
  - rule 'bool_or: removed enforcement literal' was applied 557 times.
  - rule 'deductions: 677 stored' was applied 1 time.
  - rule 'duplicate: merged rhs of linear constraint' was applied 14 times.
  - rule 'duplicate: removed constraint' was applied 15 times.
  - rule 'duplicate: removed enforced constraint' was applied 6 times.
  - rule 'enforcement: false literal' was applied 43 times.
  - rule 'enforcement: true literal' was applied 12 times.
  - rule 'exactly_one: removed literals' was applied 27 times.
  - rule 'exactly_one: satisfied' was applied 13 times.
  - rule 'exactly_one: singleton' was applied 2 times.
  - rule 'exactly_one: size two' was applied 25 times.
  - rule 'incompatible linear: add implication' was applied 132 times.
  - rule 'linear + amo: empty after processing' was applied 5 times.
  - rule 'linear + amo: extracted enforcement literal' was applied 50 times.
  - rule 'linear + amo: trivial linear constraint' was applied 1 time.
  - rule 'linear inclusion: redundant containing constraint' was applied 3 times.
  - rule 'linear inclusion: redundant included constraint' was applied 5 times.
  - rule 'linear inclusion: sparsify superset' was applied 1 time.
  - rule 'linear matrix: common vertical rectangle' was applied 5 times.
  - rule 'linear1: always true' was applied 3 times.
  - rule 'linear1: x in domain' was applied 36 times.
  - rule 'linear2: convert ax + by != cte to clauses' was applied 259 times.
  - rule 'linear2: convert implied ax + by == cte to clauses' was applied 114 times.
  - rule 'linear2: implied ax + by = cte has only one solution' was applied 7 times.
  - rule 'linear: always true' was applied 414 times.
  - rule 'linear: coefficient strengthening by increasing it' was applied 2 times.
  - rule 'linear: empty' was applied 7 times.
  - rule 'linear: enforcement literal in expression' was applied 6 times.
  - rule 'linear: extracted at most one (max)' was applied 1 time.
  - rule 'linear: fixed or dup variables' was applied 919 times.
  - rule 'linear: negative clause' was applied 1'310 times.
  - rule 'linear: negative reified and' was applied 68 times.
  - rule 'linear: never in domain' was applied 5 times.
  - rule 'linear: positive at most one' was applied 29 times.
  - rule 'linear: reduced variable domains' was applied 6 times.
  - rule 'linear: remapped using affine relations' was applied 30 times.
  - rule 'presolve: 92 unused variables removed.' was applied 1 time.
  - rule 'presolve: iteration' was applied 3 times.
  - rule 'probing: bool_or reduced to implication' was applied 13 times.
  - rule 'probing: simplified clauses' was applied 9 times.
  - rule 'setppc: bool_or in at_most_one' was applied 5 times.
  - rule 'setppc: removed dominated constraints' was applied 91 times.
  - rule 'variables: both boolean and its negation fix the same variable' was applied 3 times.
  - rule 'variables: detect half reified value encoding' was applied 6 times.

Presolved satisfaction model '': (model_fingerprint: 0xa0cb4be0bbbe6c36)
#Variables: 477 (408 primary variables)
  - 475 Booleans in [0,1]
  - 1 in [0,2]
  - 1 in [0,7]
#kAtMostOne: 41 (#literals: 196)
#kBoolAnd: 264 (#enforced: 264) (#literals: 719)
#kBoolAndClauses: 78 (#enforced: 78 #multi: 78) (#literals: 380)
#kBoolOr: 1'514 (#literals: 4'616)
#kExactlyOne: 52 (#literals: 196)
#kLinearN: 804 (#enforced: 120) (#terms: 5'412)
[Symmetry] Graph for symmetry has 3'961 nodes and 12'825 arcs.
[Symmetry] Symmetry computation done. time: 0.000783615 dtime: 0.00123477

Preloading model.
#Model   0.09s var:477/477 constraints:2753/2753

Starting search at 0.09s with 4 workers.
3 full problem subsolvers: [default_lp, max_lp, no_lp]
1 first solution subsolver: [fj]
2 interleaved subsolvers: [feasibility_pump, rins/rens]
2 helper subsolvers: [neighborhood_helper, synchronization_agent]

#Model   8.75s var:476/477 constraints:2751/2753
#Model  27.70s var:475/477 constraints:2749/2753
#Model  38.25s var:474/477 constraints:2728/2753
#Model  50.36s var:473/477 constraints:2726/2753
#Model 107.45s var:472/477 constraints:2724/2753
#Model 243.93s var:471/477 constraints:2722/2753
#Model 488.04s var:470/477 constraints:2704/2753
#Model 503.75s var:469/477 constraints:2687/2753
#Model 569.71s var:468/477 constraints:2686/2753
#Model 603.01s var:467/477 constraints:2669/2753
#Model 609.32s var:466/477 constraints:2647/2753
#Model 612.34s var:465/477 constraints:2630/2753
#Model 618.52s var:464/477 constraints:2610/2753
#Model 619.38s var:463/477 constraints:2592/2753
#Model 621.35s var:455/477 constraints:2481/2753
#Model 621.52s var:453/477 constraints:2477/2753
#Done  621.61s no_lp

Task timing                   n [     min,      max]      avg      dev     time         n [     min,      max]      avg      dev    dtime
        'default_lp':         1 [  10.36m,   10.36m]   10.36m   0.00ns   10.36m         2 [  2.23ms,   10.41m]    5.21m    5.21m   10.41m
  'feasibility_pump':      3082 [919.72us, 138.15ms]   1.52ms   2.48ms    4.69s      3081 [277.37us, 122.54ms] 319.00us   2.20ms 982.85ms
                'fj':      2201 [ 53.55ms, 208.71ms] 140.03ms   9.47ms    5.14m      2201 [ 28.93ms, 100.16ms]  99.99ms   1.52ms    3.67m
            'max_lp':         1 [  10.36m,   10.36m]   10.36m   0.00ns   10.36m         2 [ 77.72ms,   12.53m]    6.26m    6.26m   12.53m
             'no_lp':         1 [  10.36m,   10.36m]   10.36m   0.00ns   10.36m         2 [  1.90ms,   20.67m]   10.33m   10.33m   20.67m
         'rins/rens':      2821 [ 25.31ms, 181.32ms] 109.27ms  41.02ms    5.14m      2821 [438.19us, 100.27ms]  67.40ms  37.87ms    3.17m

Search stats     Bools  Conflicts   Branches  Restarts  BacktrackToRoot  Backtrack   BoolPropag  IntegerPropag
  'default_lp':    475     67'185  4'194'143       383          711'895    965'392   44'076'857     51'176'236
      'max_lp':    475     56'785  4'760'843       284          785'139  1'035'290   50'205'552     60'717'521
       'no_lp':    475  6'150'614  9'426'402    23'045          292'010  6'415'237  546'969'158    130'672'757

SAT formula      Fixed  Equiv  Total  VarLeft  BinaryClauses  PermanentClauses  TemporaryClauses
  'default_lp':     12      6    475      457          2'094            24'934             4'148
      'max_lp':    130     23    475      322          1'278             4'164                83
       'no_lp':    168      6    475      301          2'186            54'565             2'414

SAT stats        ClassicMinim  LitRemoved  LitRemovedBinary   LitLearned  LitForgotten   Subsumed
  'default_lp':        56'749     579'287           309'113    1'523'706       709'462     28'117
      'max_lp':        46'489     472'726           236'229    1'126'483       482'377     20'493
       'no_lp':     5'428'497  79'971'236        29'659'012  130'953'622    99'394'001  1'760'780

Vivification     Clauses  Decisions  LitTrue  Subsumed  LitRemoved  DecisionReused  Conflicts
  'default_lp':  796'048  4'011'704        2    10'767     110'019         248'326      1'366
      'max_lp':  862'194  4'575'511        1    12'141     124'414         266'007      1'470
       'no_lp':  250'190  2'030'479        0    14'149     194'489          78'181      1'437

Clause deletion    at_true  l_and_not(l)  to_binary  sub_conflict  sub_extra  sub_decisions  sub_eager  sub_vivify  sub_probing  sub_inpro  blocked  eliminated  forgotten    promoted  conflicts
    'default_lp':    7'727             2         10        27'731        176          1'016        386      10'767        3'231      9'629        0           0     23'180     119'640     67'185
        'max_lp':   27'857         4'002        281        20'291        164            436        202      12'141        3'098     10'439        0           0     19'244     106'151     56'785
         'no_lp':   53'600             1         82     1'726'625     16'939         88'166     34'155      14'149        7'993     91'689        0           0  4'062'577  14'063'918  6'150'614

Lp stats         Component  Iterations  AddedCuts  OPTIMAL  DUAL_F.  DUAL_U.
  'default_lp':          1   7'434'150     26'365   79'450        1   41'803
      'max_lp':          1   3'336'574     32'640   14'157   39'468    9'567

Lp dimension        Final dimension of first component
  'default_lp':    302 rows, 340 columns, 2709 entries
      'max_lp':  1362 rows, 477 columns, 35375 entries

Lp debug         CutPropag  CutEqPropag  Adjust  Overflow      Bad  BadScaling
  'default_lp':          0           17  41'803         0  732'673           0
      'max_lp':          0            4   9'567         0  856'116           0

Lp pool          Constraints  Updates  Simplif  Merged  Shortened  Split  Strengthened      Cuts/Call
  'default_lp':       10'119    4'978    5'262       0      5'345    333             0  26'365/30'832
      'max_lp':       12'738   14'932    4'905       0      4'996  1'134           940  32'640/43'419

Lp Cut            default_lp  max_lp
          CG_FF:         351      69
           CG_K:         180       9
          CG_KL:         153       2
           CG_R:         378      43
         Clique:           -      88
             IB:           4       2
       MIR_1_FF:         196     467
        MIR_1_K:          49      20
       MIR_1_KL:         134      29
        MIR_1_R:         154     167
      MIR_1_RLT:           -   3'351
       MIR_2_FF:         163     334
        MIR_2_K:          44      65
       MIR_2_KL:          85      56
        MIR_2_R:         243     261
       MIR_2_RB:           1       5
      MIR_2_RBP:           -       4
       MIR_3_FF:          89      74
        MIR_3_K:          17       6
       MIR_3_KL:          32      16
        MIR_3_R:         142      88
      MIR_3_RBP:           1       -
       MIR_4_FF:          30      23
        MIR_4_K:           8       6
       MIR_4_KL:          10       2
        MIR_4_R:         107      68
       MIR_5_FF:           3      18
        MIR_5_K:           2       3
       MIR_5_KL:           2       3
        MIR_5_R:          90      77
       MIR_6_FF:           4       5
        MIR_6_K:           2       -
       MIR_6_KL:           1       1
        MIR_6_R:          74      48
   ZERO_HALF_FF:          94     298
    ZERO_HALF_K:          18       2
   ZERO_HALF_KL:          23       7
    ZERO_HALF_R:      23'409  26'889
  ZERO_HALF_RBP:          72      34

LNS stats       Improv/Calls  Closed  Difficulty  TimeLimit
  'rins/rens':     2821/2821     50%    7.83e-01       0.10

LS stats                                    Batches  Restarts/Perturbs   LinMoves   GenMoves  CompoundMoves  Bactracks  WeightUpdates  ScoreComputed
                             'fj_restart':       84                 27  2'260'455          0              0          0      1'995'650      1'932'823
                    'fj_restart_compound':      119                 36          0  1'261'872         85'560    588'073          2'721     21'431'943
                'fj_restart_compound_obj':       94                 31          0  1'008'367         70'964    468'643          2'225     16'882'762
            'fj_restart_compound_perturb':      177                 40          0  1'912'155        113'249    899'358          4'414     31'917'347
        'fj_restart_compound_perturb_obj':      151                 32          0  1'643'696         95'063    774'245          3'699     27'277'822
                       'fj_restart_decay':      202                 36  6'160'309          0              0          0        267'476      1'975'786
              'fj_restart_decay_compound':      167                 44          0  1'959'765        321'202    819'186          2'129     30'279'525
          'fj_restart_decay_compound_obj':       95                 27          0  1'114'758        185'518    464'551          1'228     17'198'874
      'fj_restart_decay_compound_perturb':      127                 45          0  1'475'184        244'151    615'405          1'655     22'977'744
  'fj_restart_decay_compound_perturb_obj':      210                 37          0  2'559'870        413'448  1'073'140          2'676     38'183'069
                   'fj_restart_decay_obj':      128                 31  3'921'315          0              0          0        170'045      1'253'226
               'fj_restart_decay_perturb':      180                 45  5'501'601          0              0          0        239'335      1'769'856
           'fj_restart_decay_perturb_obj':      108                 33  3'301'951          0              0          0        143'566      1'058'747
                         'fj_restart_obj':      155                 50  4'218'412          0              0          0      3'542'537      3'596'193
                     'fj_restart_perturb':       69                 36  1'906'502          0              0          0      1'571'646      1'414'574
                 'fj_restart_perturb_obj':      135                 40  3'651'008          0              0          0      3'176'145      3'047'823

Solution repositories    Added  Queried  Synchro
    'alternative_path':      0        0        0
      'best_solutions':      0        0        0
   'fj solution hints':    582        0      582
        'lp solutions':    528    2'821      527
                'pump':      0        0

Improving bounds shared    Num  Sym
            'default_lp':    7    0
                'max_lp':    1    0
                 'no_lp':  122    0

Clauses shared    #Exported  #Imported  #BinaryRead  #BinaryTotal
   'default_lp':      2'818     45'672          199           563
       'max_lp':      3'090     46'571          563           563
        'no_lp':     46'382      5'331          335           563

LRAT_status: NA
CpSolverResponse summary:
status: INFEASIBLE
objective: NA
best_bound: NA
integers: 353
booleans: 475
conflicts: 6150614
branches: 9426402
propagations: 546969158
integer_propagations: 130672757
restarts: 23045
lp_iterations: 0
walltime: 621.635
usertime: 621.635
deterministic_time: 3027.58
gap_integral: 0

{
  "board_size": 22,
  "parity_proved": 0,
  "target": 34,
  "child_id": 538,
  "child_count": 2640,
  "partition": "unknown_pair_x_diag_plus_twos_x_diag_minus_twos",
  "build_seconds": 0.07881951332092285,
  "workers": 4,
  "requested_seed": 2026072638,
  "effective_seed": 2026072638,
  "main_diagonal_pair": [
    1,
    16
  ],
  "pair_index": 35,
  "diag_plus_twos": 17,
  "diag_minus_twos": 16,
  "pair_excess": 26,
  "residual_certificate_slack": 86,
  "analytic_minimum_line_defect": 0,
  "analytic_defect_details": {
    "row_costs": {
      "12": 6,
      "13": 3,
      "14": 0,
      "15": 0,
      "16": 0,
      "17": 0
    },
    "column_costs": {
      "12": 6,
      "13": 3,
      "14": 0,
      "15": 0,
      "16": 0,
      "17": 0
    },
    "plus_cost": 0,
    "minus_cost": 0,
    "row_column_minimum": 0
  },
  "maximal_line_constraints": 2455,
  "analytic_infeasible": false,
  "allowed_points": 242,
  "status": "INFEASIBLE",
  "proof_method": "cp_sat_all_lines_with_certificate_profile_cuts",
  "elapsed_seconds": 621.635288476944,
  "branches": 9426402,
  "conflicts": 6150614
}
